unsat
(:binary-propagations  15
 :conflicts            1
 :final-checks         1
 :max-generation       1
 :max-memory           22.82
 :memory               20.81
 :mk-bool-var          137
 :mk-clause            47
 :mk-clause-binary     226
 :num-allocs           3501279
 :num-checks           1
 :propagations         15
 :quant-instantiations 40
 :restarts             1
 :rlimit-count         31502
 :time                 0.01)
